language ESSENCE' 1.0

letting jobs = 102
letting horizon = 809
letting resourcesRenew = 2
letting resourcesNonrenew = 2
letting resourceLimits = [14, 17, 155, 164]
letting successors = [[2, 3, 4, 5, 6, 7, 8, 9, 10, 11, 12, 14, 15, 16, 21, 22, 23], [64, 51, 41, 38, 37, 28, 24, 20, 18], [45, 44, 41, 40, 37, 36, 31, 19, 17], [52, 45, 40, 39, 36, 30, 20, 13], [64, 54, 50, 47, 44, 41, 39, 38, 37, 36, 35, 34, 33, 31, 29], [64, 54, 52, 50, 47, 44, 43, 41, 39, 38, 36, 34, 32, 31, 28], [58, 50, 48, 47, 45, 44, 40, 39, 38, 37, 33, 27, 24], [54, 51, 50, 44, 41, 37, 36, 33, 32, 26, 25], [64, 54, 52, 50, 47, 44, 43, 38, 37, 36, 34, 31, 28], [64, 52, 47, 45, 42, 40, 36, 31, 20], [54, 50, 49, 45, 43, 40, 34, 32, 31, 25], [64, 58, 54, 53, 52, 50, 45, 43, 39, 38, 33, 30], [64, 58, 54, 47, 46, 44, 34, 33, 31, 28], [54, 46, 45, 43, 42, 41, 40, 39, 25], [64, 61, 54, 53, 47, 41, 39, 38, 35, 33, 29], [64, 54, 50, 47, 45, 44, 39, 34, 33], [86, 74, 66, 64, 60, 58, 54, 51, 47, 46, 38, 34, 33], [60, 54, 53, 50, 47, 43, 40, 33, 32, 31], [86, 73, 70, 66, 64, 57, 55, 54, 53, 50, 49, 48, 47, 46, 43, 42], [86, 70, 66, 58, 56, 54, 50, 49, 46, 44, 43, 34], [86, 73, 70, 66, 54, 53, 50, 48, 47, 46, 43, 42, 38], [86, 73, 70, 69, 66, 61, 56, 44, 43, 38, 34], [73, 69, 64, 60, 53, 50, 48, 46, 38, 35], [73, 72, 70, 55, 53, 46, 43, 42, 31], [78, 74, 73, 72, 70, 66, 64, 61, 60, 59, 56, 53, 48, 47, 38], [86, 78, 76, 74, 73, 72, 69, 66, 64, 63, 60, 58, 57, 55, 53, 52, 48], [86, 77, 76, 74, 73, 70, 68, 66, 65, 60, 59, 55, 52, 49, 46], [77, 73, 72, 70, 68, 66, 65, 57, 56, 49, 42], [85, 82, 78, 77, 74, 73, 72, 69, 68, 65, 63, 62, 60, 59, 57, 56, 55], [85, 79, 76, 73, 72, 70, 69, 68, 62, 59, 56, 46, 44], [101, 86, 82, 79, 78, 77, 76, 74, 69, 68, 66, 65, 63, 62, 59, 57, 56], [85, 82, 79, 78, 77, 76, 74, 72, 71, 69, 65, 62, 59, 46], [101, 85, 79, 78, 77, 73, 70, 65, 57, 56, 49], [101, 85, 76, 72, 63, 57, 55, 53, 48], [100, 82, 79, 76, 70, 66, 43], [78, 76, 73, 68, 66, 62, 61, 58, 55], [85, 82, 80, 76, 74, 73, 69, 62, 46], [85, 77, 76, 71, 65, 63, 62, 57, 55], [86, 77, 75, 73, 70, 68, 66, 65, 55], [101, 97, 85, 82, 77, 76, 72, 71, 70, 67, 57], [98, 85, 82, 79, 78, 77, 76, 72, 65, 63, 62], [100, 98, 82, 79, 75, 74, 69, 63, 62, 60], [101, 85, 78, 74, 71, 67, 63, 62, 59], [100, 98, 96, 82, 74, 71, 67, 60], [99, 96, 82, 81, 73, 66, 61], [98, 97, 96, 92, 67, 63, 61], [100, 95, 93, 85, 80, 79, 76, 71, 68], [100, 98, 93, 92, 82, 71, 67, 62], [100, 98, 84, 82, 80, 69, 63, 62], [101, 93, 76, 74, 72, 59], [100, 99, 98, 95, 93, 84, 81, 78, 77, 76, 69], [99, 98, 97, 96, 95, 92, 91, 82, 71, 61], [100, 98, 94, 90, 84, 77, 68, 65], [100, 97, 93, 85, 79, 76, 72, 67], [100, 97, 96, 94, 93, 92, 80, 79, 67], [98, 96, 93, 71, 67], [100, 99, 98, 95, 94, 93, 92, 90, 89, 88, 84, 83], [101, 100, 98, 96, 95, 88, 84, 81, 80], [99, 98, 96, 95, 92, 90, 81, 75], [101, 99, 95, 94, 93, 92, 90, 88, 81], [101, 100, 93, 90, 83, 75], [97, 96, 95, 94, 91, 90, 89, 88, 87], [99, 95, 94, 93, 90, 89, 88, 83], [100, 95, 94, 93, 89, 84, 83], [96, 95, 93, 92, 88, 83], [98, 97, 89, 88, 87, 85], [91, 90, 88, 84, 81], [99, 97, 92, 91, 89, 88], [94, 92, 90, 88, 83], [91, 89, 88, 84, 83], [83, 75], [92, 75], [92, 91, 88, 83], [97, 89, 88, 87], [89, 88, 84], [91, 90, 88], [96, 89, 87], [91, 83], [91, 87], [90, 89], [83], [83], [87], [87], [94], [88], [102], [102], [102], [102], [102], [102], [102], [102], [102], [102], [102], [102], [102], [102], [102], []]
letting durations = [[0], [3, 5, 10], [7, 8, 9], [1, 2, 3], [6, 6, 9], [1, 4, 7], [6, 7, 10], [1, 3, 5], [2, 6, 8], [4, 6, 8], [7, 9, 10], [6, 7, 10], [2, 3, 4], [3, 4, 6], [4, 5, 9], [4, 6, 8], [2, 8, 9], [2, 5, 10], [1, 3, 9], [4, 5, 7], [4, 7, 9], [2, 6, 9], [3, 5, 8], [6, 7, 7], [1, 2, 10], [5, 9, 10], [3, 4, 7], [3, 4, 10], [6, 6, 7], [1, 7, 9], [2, 3, 5], [3, 4, 9], [4, 7, 8], [2, 3, 10], [4, 7, 10], [5, 7, 8], [3, 7, 8], [2, 4, 10], [5, 6, 10], [3, 4, 6], [1, 7, 8], [1, 3, 6], [7, 8, 10], [5, 6, 9], [1, 7, 8], [1, 7, 7], [5, 6, 7], [3, 5, 7], [1, 3, 5], [1, 8, 9], [1, 4, 5], [3, 5, 10], [3, 5, 8], [2, 4, 10], [4, 8, 10], [3, 6, 10], [3, 4, 10], [1, 2, 9], [1, 7, 9], [1, 2, 5], [1, 8, 10], [3, 4, 10], [5, 7, 9], [3, 7, 9], [1, 2, 3], [2, 6, 7], [1, 3, 9], [1, 6, 6], [6, 6, 9], [2, 2, 6], [4, 5, 8], [3, 4, 8], [4, 8, 10], [1, 2, 4], [1, 2, 6], [4, 7, 8], [2, 7, 7], [3, 5, 6], [6, 8, 9], [1, 4, 10], [1, 8, 8], [1, 2, 3], [2, 3, 10], [3, 6, 6], [2, 4, 7], [6, 7, 7], [1, 4, 10], [3, 5, 8], [1, 7, 8], [1, 6, 10], [4, 8, 9], [2, 5, 10], [1, 5, 6], [4, 5, 9], [3, 5, 7], [2, 6, 8], [2, 4, 8], [1, 3, 9], [6, 9, 10], [3, 7, 10], [2, 8, 9], [0]]
letting resourceUsage = [[[0, 0, 0, 0]], [[3, 0, 0, 3], [2, 0, 9, 0], [0, 1, 9, 0]], [[5, 0, 10, 0], [0, 3, 0, 1], [0, 1, 0, 1]], [[0, 5, 8, 0], [4, 0, 0, 3], [0, 4, 0, 2]], [[0, 3, 5, 0], [3, 0, 4, 0], [3, 0, 3, 0]], [[2, 0, 6, 0], [0, 3, 5, 0], [0, 3, 4, 0]], [[0, 2, 0, 9], [3, 0, 6, 0], [2, 0, 0, 6]], [[2, 0, 0, 5], [2, 0, 0, 4], [1, 0, 0, 2]], [[0, 5, 7, 0], [0, 4, 7, 0], [2, 0, 6, 0]], [[3, 0, 0, 9], [0, 4, 3, 0], [0, 4, 0, 6]], [[0, 3, 8, 0], [2, 0, 7, 0], [2, 0, 5, 0]], [[0, 5, 0, 9], [2, 0, 0, 6], [0, 1, 1, 0]], [[0, 3, 0, 3], [0, 3, 0, 2], [0, 3, 0, 1]], [[0, 3, 0, 8], [0, 3, 0, 7], [1, 0, 2, 0]], [[1, 0, 0, 4], [0, 3, 0, 4], [0, 3, 1, 0]], [[4, 0, 0, 4], [0, 5, 6, 0], [0, 5, 1, 0]], [[0, 4, 0, 7], [0, 3, 5, 0], [0, 1, 5, 0]], [[0, 5, 9, 0], [0, 3, 4, 0], [0, 2, 1, 0]], [[0, 3, 9, 0], [3, 0, 8, 0], [0, 2, 0, 5]], [[1, 0, 0, 5], [0, 2, 8, 0], [1, 0, 8, 0]], [[0, 4, 9, 0], [3, 0, 6, 0], [0, 3, 0, 1]], [[0, 4, 0, 7], [0, 3, 0, 7], [0, 3, 5, 0]], [[0, 2, 8, 0], [1, 0, 0, 4], [1, 0, 8, 0]], [[0, 2, 0, 6], [2, 0, 7, 0], [0, 2, 0, 1]], [[1, 0, 0, 6], [1, 0, 0, 2], [1, 0, 0, 1]], [[3, 0, 7, 0], [1, 0, 0, 6], [0, 3, 2, 0]], [[4, 0, 7, 0], [3, 0, 5, 0], [3, 0, 4, 0]], [[5, 0, 5, 0], [3, 0, 4, 0], [1, 0, 3, 0]], [[5, 0, 5, 0], [0, 4, 0, 3], [0, 4, 0, 2]], [[0, 4, 0, 3], [3, 0, 4, 0], [3, 0, 0, 3]], [[3, 0, 8, 0], [2, 0, 7, 0], [2, 0, 5, 0]], [[0, 3, 6, 0], [0, 3, 4, 0], [0, 3, 0, 1]], [[0, 5, 0, 7], [0, 4, 0, 3], [3, 0, 0, 3]], [[3, 0, 3, 0], [0, 2, 3, 0], [3, 0, 0, 6]], [[2, 0, 0, 7], [1, 0, 9, 0], [1, 0, 0, 4]], [[0, 5, 0, 9], [3, 0, 1, 0], [0, 3, 1, 0]], [[2, 0, 6, 0], [0, 2, 5, 0], [2, 0, 0, 7]], [[0, 5, 5, 0], [0, 3, 3, 0], [0, 2, 2, 0]], [[0, 1, 5, 0], [0, 1, 0, 4], [0, 1, 0, 2]], [[0, 5, 0, 6], [0, 3, 9, 0], [0, 2, 0, 5]], [[5, 0, 2, 0], [0, 3, 1, 0], [5, 0, 0, 4]], [[3, 0, 0, 4], [0, 1, 0, 4], [0, 1, 0, 1]], [[5, 0, 5, 0], [0, 1, 0, 7], [4, 0, 3, 0]], [[0, 4, 4, 0], [3, 0, 3, 0], [0, 2, 2, 0]], [[4, 0, 5, 0], [3, 0, 0, 4], [3, 0, 1, 0]], [[0, 1, 0, 4], [3, 0, 0, 4], [0, 1, 8, 0]], [[3, 0, 0, 9], [3, 0, 8, 0], [3, 0, 0, 4]], [[0, 3, 0, 10], [2, 0, 0, 8], [1, 0, 1, 0]], [[3, 0, 0, 7], [2, 0, 6, 0], [0, 1, 0, 5]], [[0, 2, 0, 6], [2, 0, 10, 0], [2, 0, 0, 4]], [[0, 3, 0, 5], [3, 0, 0, 2], [2, 0, 0, 1]], [[1, 0, 0, 4], [1, 0, 0, 3], [1, 0, 0, 1]], [[5, 0, 5, 0], [0, 4, 0, 7], [0, 4, 3, 0]], [[0, 3, 4, 0], [3, 0, 3, 0], [0, 2, 2, 0]], [[3, 0, 5, 0], [0, 2, 0, 4], [0, 2, 1, 0]], [[0, 3, 0, 4], [0, 3, 0, 3], [0, 3, 8, 0]], [[3, 0, 0, 9], [3, 0, 8, 0], [0, 2, 0, 4]], [[3, 0, 0, 10], [3, 0, 0, 8], [3, 0, 1, 0]], [[3, 0, 0, 7], [3, 0, 6, 0], [2, 0, 0, 5]], [[1, 0, 0, 6], [1, 0, 10, 0], [0, 2, 0, 4]], [[0, 1, 0, 5], [2, 0, 0, 2], [2, 0, 0, 1]], [[0, 5, 0, 10], [0, 4, 3, 0], [3, 0, 1, 0]], [[0, 4, 0, 8], [0, 3, 0, 6], [0, 2, 0, 3]], [[0, 5, 7, 0], [0, 5, 6, 0], [0, 5, 0, 2]], [[0, 5, 0, 5], [2, 0, 5, 0], [0, 4, 1, 0]], [[1, 0, 6, 0], [1, 0, 0, 9], [1, 0, 0, 8]], [[2, 0, 9, 0], [2, 0, 7, 0], [2, 0, 0, 4]], [[5, 0, 0, 9], [4, 0, 0, 7], [0, 3, 0, 2]], [[0, 3, 0, 9], [4, 0, 0, 7], [0, 2, 0, 5]], [[0, 2, 0, 9], [4, 0, 6, 0], [4, 0, 2, 0]], [[0, 4, 6, 0], [0, 3, 4, 0], [1, 0, 0, 4]], [[0, 4, 0, 7], [0, 3, 0, 6], [0, 2, 0, 5]], [[1, 0, 0, 6], [0, 3, 0, 6], [0, 2, 0, 6]], [[0, 5, 0, 8], [0, 3, 7, 0], [0, 3, 0, 3]], [[0, 4, 10, 0], [0, 4, 0, 2], [0, 3, 0, 1]], [[0, 2, 7, 0], [2, 0, 0, 7], [1, 0, 0, 4]], [[0, 5, 9, 0], [3, 0, 5, 0], [3, 0, 0, 7]], [[0, 1, 0, 10], [0, 1, 4, 0], [0, 1, 0, 9]], [[4, 0, 0, 9], [0, 4, 3, 0], [0, 2, 3, 0]], [[3, 0, 10, 0], [0, 1, 7, 0], [2, 0, 6, 0]], [[0, 3, 8, 0], [1, 0, 6, 0], [0, 1, 0, 3]], [[0, 4, 2, 0], [0, 3, 1, 0], [1, 0, 1, 0]], [[0, 3, 0, 5], [0, 3, 0, 4], [2, 0, 0, 2]], [[1, 0, 0, 9], [0, 1, 0, 9], [1, 0, 0, 8]], [[3, 0, 0, 7], [0, 3, 0, 7], [2, 0, 0, 1]], [[0, 5, 9, 0], [5, 0, 7, 0], [0, 4, 0, 4]], [[3, 0, 0, 5], [0, 2, 0, 3], [1, 0, 4, 0]], [[3, 0, 6, 0], [2, 0, 0, 7], [2, 0, 5, 0]], [[4, 0, 0, 10], [4, 0, 4, 0], [4, 0, 1, 0]], [[0, 5, 2, 0], [4, 0, 0, 6], [0, 3, 0, 5]], [[3, 0, 10, 0], [0, 2, 7, 0], [2, 0, 2, 0]], [[0, 3, 0, 5], [0, 3, 0, 3], [0, 3, 0, 2]], [[0, 5, 0, 8], [4, 0, 0, 8], [0, 1, 2, 0]], [[1, 0, 0, 5], [0, 2, 6, 0], [0, 2, 0, 2]], [[5, 0, 7, 0], [0, 2, 5, 0], [3, 0, 3, 0]], [[0, 4, 0, 9], [0, 4, 0, 5], [4, 0, 4, 0]], [[2, 0, 4, 0], [0, 2, 0, 4], [0, 1, 2, 0]], [[0, 2, 0, 8], [2, 0, 4, 0], [0, 2, 4, 0]], [[4, 0, 0, 6], [0, 2, 0, 4], [0, 2, 0, 3]], [[5, 0, 8, 0], [2, 0, 5, 0], [0, 1, 0, 2]], [[2, 0, 0, 2], [0, 3, 0, 3], [0, 3, 0, 2]], [[0, 0, 0, 0]]]
